50
100
99
99
98
97
97
94
94
93
91
90
87
87
86
85
85
81
80
78
78
77
76
72
66
66
64
59
58
57
57
53
52
50
50
50
48
48
47
46
43
40
39
37
37
36
36
35
33
32
30
30
